outputs/case_127.model.txt
advertising_misleading_other = True
advertising_fraud = False
advertising_concealment = True
advertising_false = True
advertising_misleading = False
financial_education_referral = False
prohibited_financial_education = True
internal_control_change_completed_within_deadline = False
internal_control_change_notified_by_authority = False
futures_internal_control_change_completed_within_deadline = False
futures_internal_control_change_notified = False
advertising_content_true = False
advertising_content_obligation = False
subsidiary_defined_by_financial_reporting = True
order_to_suspend_personnel = True
warning_issued = True
other_necessary_measures = False
order_to_remove_personnel = True
order_to_remove_officer = True
suspension_of_fund_raising = False
license_revocation = False
business_suspension = False
violation_advertising_regulations = False
violation_disclosure_rules = False
violation_consumer_suitability = False
violation_compensation_rules = False
personnel_penalty_measures = True
customer_knowledge_and_risk_assessment = True
internal_control_written = True
proxy_violate_provisions = False
personnel_other_harmful_behaviors = False
advertising_performance_forecast = False
internal_control_established = True
violation_restriction_rules_70 = False
personnel_agent_for_others = False
internal_control_deficiencies_corrected = True
violation_119_listed = False
internal_control_change_complied = True
internal_control_includes_required_principles = True
violation_compensation_system = False
personnel_good_faith_principle_observed = True
personnel_misconduct_affecting_business = False
advertising_violate_law_or_contract = False
violation_unapproved_business = False
subsidiary_defined = True
advertising_foreign_exchange_speculation = False
advertising_unapproved_fund_promotion = False
internal_control_change_recorded = True
personnel_public_recommendation_or_forecast = False
transaction_data_confidential = True
personnel_change_trade_account = False
futures_internal_control_change_recorded = True
law_or_order_violated = False
personnel_transaction_data_confidential = True
large_or_suspicious_transactions_recorded_and_compliant = True
duty_of_care_observed = True
penalty_measures = True
minor_case_exemption = True
penalty_violation_list = False
violation_branch_establishment_72_1 = False
annual_audit_plan_reported = True
personnel_duty_of_care_observed = True
personnel_other_related_data_confidential = True
personnel_personal_data_confidential = True
futures_business_operated_according_to_internal_control = True
personnel_offer_specific_benefits = False
advertising_guarantee_principal_or_profit = False
violation_investment_scope_14_1 = False
violation_provisions_16_1_19_1_51_1_59 = False
internal_control_structure_defined = True
advertising_illegal_promotion = False
customer_identity_provided_and_basic_data_filled = True
audit_findings_reported = True
futures_internal_control_change_complied = True
internal_control_operated = True
advertising_reported_to_association_within_10_days = True
internal_control_violation_conditions = False
violation_disclosure = False
advertising_false_or_fraudulent = False
internal_control_self_assessed = True
violation_investment_scope_16_4 = False
personnel_not_return_commission_to_fund = False
business_duty_of_care_and_loyalty = True
confidentiality_observed = True
internal_control_anti_money_laundering = True
internal_control_system_established = True
personnel_leak_confidential_info = False
short_swing_trading_fee_deducted = True
futures_internal_control_system_established = True
fund_sales_violation = False
short_swing_trading_fee_deducted_and_accounted = True
personnel_confidentiality = True
personnel_prohibited_behaviors = True
internal_control_executed = True
good_faith_principle_observed = True
personnel_false_or_fraudulent = False
internal_control_reviewed = True
advertising_reported = True
proxy_assigned_with_qualification = True
violation_behavior_rules_69 = False
annual_audit_plan_executed = True
advertising_prohibited_behaviors = True
internal_control_change_reported_to_board = True
penalty_fines = False
advertising_use_approval_as_guarantee = False
futures_internal_control_change_reported = True
serious_financial_reporting_violation = False
personnel_duty_of_loyalty_observed = True
business_operated_according_to_internal_control = True
penalty_exemption_for_minor_cases = True
serious_fraud_or_suspected = False
subscription_and_redemption_follow_contract_and_procedures = True
futures_internal_control_change_reported_to_board = True
personnel_unreasonable_commission = False
customer_knowledge_and_risk_assessed = True
internal_control_requirements = True
internal_control_sales_behavior = True
personnel_sell_proxy_votes = False
futures_internal_control_established = True
violation_of_law_or_order = False
violation_consumer_understanding = False
futures_internal_control_operated = True
large_or_suspicious_transactions_recorded = True
violation_no_business_license_63_1 = False
duty_of_loyalty_observed = True
fund_sales_violation_responsibility = False
customer_identity_and_basic_data = True
internal_audit_staff_adequate = True
subscription_and_redemption_procedures = True
other_related_data_confidential = True
advertising_other_impacting_business_or_beneficiaries = False
internal_control_legal_compliance = True
personnel_misconduct = False
violation_advertising_rules = False
proxy_recorded_in_special_book = True
internal_control_short_swing_prevention = True
liability_for_damage = False
internal_control_change_reported = True
personnel_self_dealing = False
personnel_duty_of_care_and_loyalty = True
violation_diversification_ratio_58_2 = False
personnel_proxy_assignment = True
personnel_manipulate_market_price = False
violation_list_119 = False
penalty = False
personal_data_confidential = True
internal_control_customer_understanding = True
obligation_to_consumer = False
advertising_truthful = False